Route #1: 53 58 40 26 12 80 68 24 29 3 77 76 50 1 69
Route #2: 51 33 81 9 71 65 35 34 78 79 54 55 25 73 21
Route #3: 4 39 67 23 56 75 41 22 74 72
Route #4: 13 97 92 37 100 98 93 99 59 95 94
Route #5: 85 91 44 14 38 86 16 61 17 84 5
Route #6: 60 83 8 46 36 49 64 47 48 82 7 88 31 70
Route #7: 52 62 10 30 20 66 32 90 63 11 19 45 18
Route #8: 28 27 89 6 96 42 43 15 57 2 87
Cost 938
